tsp_instances/TSP50/instance1.tsp
NODE_COORD_SECTION
0 111 1
1 168 163
2 9 26
3 128 86
4 142 11
5 161 12
6 88 113
7 141 171
8 10 64
9 175 64
10 107 28
11 194 35
12 142 20
13 24 13
14 46 136
15 185 139
16 150 186
17 9 89
18 104 71
19 144 96
20 140 11
21 4 112
22 9 70
23 164 193
24 90 153
25 100 125
26 190 105
27 48 59
28 122 200
29 196 14
30 188 9
31 0 97
32 173 78
33 80 10
34 74 167
35 74 178
36 185 131
37 148 199
38 64 171
39 97 187
40 170 141
41 41 38
42 156 171
43 21 70
44 137 85
45 58 21
46 175 196
47 147 125
48 27 125
49 17 29
