tsp_instances/TSP50/instance1.opt.tour
TOUR_SECTION
1
11
34
46
14
3
50
42
28
44
9
23
18
32
22
49
15
7
19
4
45
20
48
26
25
35
39
36
40
29
38
47
24
17
8
43
2
41
16
37
27
33
10
12
30
31
6
13
5
21
-1